GLPSOL--GLPK LP/MIP Solver 5.0
Parameter(s) specified in the command line:
 --lp ../modeles/4_139.lp --log 4_139.log
Reading problem data from '../modeles/4_139.lp'...
573 rows, 1120 columns, 3912 non-zeros
556 integer variables, all of which are binary
1703 lines were read
GLPK Integer Optimizer 5.0
573 rows, 1120 columns, 3912 non-zeros
556 integer variables, all of which are binary
Preprocessing...
552 constraint coefficient(s) were reduced
573 rows, 1116 columns, 3908 non-zeros
556 integer variables, all of which are binary
Scaling...
 A: min|aij| =  2.070e-04  max|aij| =  4.000e+00  ratio =  1.932e+04
GM: min|aij| =  8.482e-02  max|aij| =  1.179e+01  ratio =  1.390e+02
EQ: min|aij| =  7.194e-03  max|aij| =  1.000e+00  ratio =  1.390e+02
2N: min|aij| =  3.312e-03  max|aij| =  1.688e+00  ratio =  5.095e+02
Constructing initial basis...
Size of triangular part is 573
Solving LP relaxation...
GLPK Simplex Optimizer 5.0
573 rows, 1116 columns, 3908 non-zeros
      0: obj =   8.000000000e+00 inf =   1.620e+02 (9)
     51: obj =   4.996118012e-01 inf =   0.000e+00 (0)
*   187: obj =  -1.999629708e+00 inf =   2.752e-15 (0)
OPTIMAL LP SOLUTION FOUND
Integer optimization begins...
Long-step dual simplex will be used
+   187: mip =     not found yet >=              -inf        (1; 0)
+   189: >>>>>  -1.999629708e+00 >=  -1.999629708e+00 < 0.1% (3; 0)
+   189: mip =  -1.999629708e+00 >=     tree is empty   0.0% (0; 5)
INTEGER OPTIMAL SOLUTION FOUND
Time used:   0.0 secs
Memory used: 1.7 Mb (1731126 bytes)
